1 41 0 0 0
2 179 240 0 0
3 116 0 0 1
4 7 200 100 0
5 245 0 0 0
6 195 0 0 1
7 268 0 0 0
8 98 0 0 1
9 97 180 180 0
10 155 180 170 1
11 19 240 0 0
12 268 0 270 1
13 207 0 0 0
14 18 280 0 1
15 186 0 180 0
16 207 100 0 0
17 232 0 0 0
18 233 210 0 0
19 67 210 210 0
20 67 0 180 0
21 125 110 0 0
22 100 0 0 1
23 233 0 210 1
24 108 190 0 1
25 180 0 0 0
26 116 0 80 0
27 177 0 0 0
28 183 0 140 0
29 232 240 0 0
30 268 290 0 1
31 276 0 130 0
32 155 0 0 1
33 151 0 260 0
34 217 0 310 0
35 7 200 50 1
36 92 290 0 0
37 207 0 170 0
38 7 290 150 0
39 183 160 0 1
40 73 0 0 1
41 32 0 0 1
42 18 0 0 0
43 151 60 0 1
44 145 230 70 1
45 18 140 0 0
46 108 0 110 0
47 219 0 110 0
48 247 0 170 0
49 30 0 0 1
50 217 210 200 0
51 11 0 230 0
52 21 0 220 0
53 7 150 0 1
54 100 0 90 0
55 271 0 300 1
56 125 110 90 0
57 19 0 180 0
58 94 0 170 1
59 73 180 0 1
60 179 0 240 0
61 145 160 160 0
62 7 200 0 0
63 16 230 230 0
64 93 0 0 1
65 145 0 0 0
66 66 0 250 1
67 92 190 0 0
68 219 90 0 1
69 32 90 100 0
70 26 0 0 1
71 94 170 170 1
72 275 0 0 0
73 177 190 0 1
74 11 230 230 1
75 240 0 200 1
76 100 120 0 0
77 177 200 200 1
78 115 0 0 0
79 268 0 180 0
80 16 230 0 0
81 183 160 160 0
82 224 320 160 1
83 21 0 140 1
84 224 280 0 0
85 271 0 0 0
86 62 0 340 1
87 275 200 0 1
88 245 140 0 0
89 32 0 100 0
90 53 0 240 0
91 93 220 220 0
92 97 180 0 1
93 25 0 240 1
94 155 0 70 1
95 195 240 0 1
96 26 120 0 1
97 125 0 120 0
98 177 0 200 0
99 21 220 0 0
100 268 90 150 0
101 7 150 150 0
102 67 0 0 1
103 53 170 0 1
104 98 50 0 1
105 175 140 0 1
106 92 0 0 0
107 73 0 180 0
108 5 0 0 1
109 179 0 0 0
110 233 0 0 0
111 125 210 90 0
112 21 280 0 1
113 183 0 0 0
114 11 170 0 1
115 94 0 310 1
116 98 0 160 0
117 101 0 0 1
118 151 0 0 1
119 175 0 220 1
120 21 0 0 0
121 186 220 220 1
122 41 0 190 1
123 268 90 90 1
124 11 0 0 0
125 5 0 170 0
126 222 110 110 1
127 268 0 90 1
128 222 0 0 0
129 108 0 0 0
130 222 160 110 0
131 26 0 210 0
132 151 0 140 0
133 224 0 140 0
134 115 0 200 0
135 97 0 180 1
136 179 240 240 1
137 97 0 0 1
138 116 0 220 0
139 222 230 0 1
140 32 270 0 1
141 19 330 0 0
142 21 220 220 1
143 145 320 160 0
144 186 220 0 1
145 240 170 0 0
146 62 0 170 1
147 245 200 200 1
148 217 0 0 0
149 224 160 160 1
150 5 230 0 0
151 100 120 120 1
152 32 180 0 1
153 145 230 0 1
154 247 0 0 0
155 115 200 200 0
156 271 0 220 1
157 67 210 0 0
158 94 140 0 1
159 219 110 110 1
160 157 0 0 1
161 224 160 0 0
162 145 160 0 1
163 62 0 0 0
164 66 140 0 1
165 116 0 150 0
166 217 110 100 0
167 73 180 180 0
168 217 0 100 0
169 16 0 220 1
170 16 0 0 0
171 276 0 0 0
172 66 0 140 0
173 271 220 220 0
174 53 230 240 1
175 232 0 200 1
176 100 230 120 0
177 195 0 200 1
178 32 180 180 0
179 240 200 200 0
180 92 0 100 1
181 25 180 0 1
182 77 0 230 1
183 268 220 0 0
184 224 0 0 0
185 18 140 60 1
186 30 200 0 0
187 115 100 0 0
188 41 120 0 0
189 53 0 0 1
190 233 210 210 0
191 157 220 0 1
192 100 200 0 0
193 115 200 0 0
194 97 0 300 0
195 92 240 0 1
196 222 230 220 0
197 155 180 0 0
198 116 200 0 1
199 66 140 140 0
200 18 0 70 1
201 268 150 0 0
202 195 240 240 1
203 175 0 0 1
204 93 0 220 1
205 217 60 100 0
206 276 210 0 0
207 252 0 200 0
208 19 0 0 1
209 125 0 0 0
210 217 160 100 0
211 77 120 0 1
212 77 0 0 1
213 219 0 0 0
214 182 210 0 0
215 116 200 190 1
216 245 0 320 1
217 93 220 0 0
218 217 210 0 1
219 101 210 0 0
220 125 210 0 1
221 145 0 110 1
222 271 180 0 0
223 7 0 0 0
224 66 0 0 1
225 268 90 0 0
226 98 0 310 0
227 7 0 120 1
228 252 0 0 0
229 245 0 200 0
230 151 100 140 0
231 182 0 0 0
232 240 0 0 1
233 125 0 60 1
234 180 0 170 0
235 186 0 0 0
236 222 0 110 0
237 94 0 0 1
238 25 0 0 1
238 278 9625 0.011651